backend/data/formal_work/formal_201d655d/assertions/formal_201d655d__02_ap_fifo_onehot0_full_empty/formal_201d655d__02_ap_fifo_onehot0_full_empty_bmc/model/design_smt2.smt2
; SMT-LIBv2 description generated by Yosys 0.63+184 (git sha1 240439bdb-dirty, aarch64-apple-darwin23.5-clang++ 18.1.8 -fPIC -O3)
; yosys-smt2-module fifo
(declare-sort |fifo_s| 0)
(declare-fun |fifo_is| (|fifo_s|) Bool)
; yosys-smt2-witness {"offset": 0, "path": ["$auto$async2sync.cc:116:execute$169"], "smtname": 0, "smtoffset": 0, "type": "reg", "width": 1}
(declare-fun |fifo#0| (|fifo_s|) (_ BitVec 1)) ; $auto$async2sync.cc:116:execute$169
; yosys-smt2-register $auto$async2sync.cc:116:execute$169 1
(define-fun |fifo_n $auto$async2sync.cc:116:execute$169| ((state |fifo_s|)) Bool (= ((_ extract 0 0) (|fifo#0| state)) #b1))
(declare-fun |fifo#1| (|fifo_s|) Bool) ; \empty_out
(declare-fun |fifo#2| (|fifo_s|) Bool) ; \full_out
(define-fun |fifo#3| ((state |fifo_s|)) Bool (not (or  (|fifo#1| state) (|fifo#2| state)))) ; $eq$formal_201d655d__02_ap_fifo_onehot0_full_empty_monitor.sv:116$43_Y
(define-fun |fifo#4| ((state |fifo_s|)) (_ BitVec 3) (bvsub (concat #b0 (concat (ite (|fifo#2| state) #b1 #b0) (ite (|fifo#1| state) #b1 #b0))) #b001)) ; $sub$formal_201d655d__02_ap_fifo_onehot0_full_empty_monitor.sv:116$44_Y [2:0]
(define-fun |fifo#5| ((state |fifo_s|)) (_ BitVec 32) (bvand (concat #b000000000000000000000000000000 (concat (ite (|fifo#2| state) #b1 #b0) (ite (|fifo#1| state) #b1 #b0))) (concat ((_ extract 2 2) (|fifo#4| state)) (concat ((_ extract 2 2) (|fifo#4| state)) (concat ((_ extract 2 2) (|fifo#4| state)) (concat ((_ extract 2 2) (|fifo#4| state)) (concat ((_ extract 2 2) (|fifo#4| state)) (concat ((_ extract 2 2) (|fifo#4| state)) (concat ((_ extract 2 2) (|fifo#4| state)) (concat ((_ extract 2 2) (|fifo#4| state)) (concat ((_ extract 2 2) (|fifo#4| state)) (concat ((_ extract 2 2) (|fifo#4| state)) (concat ((_ extract 2 2) (|fifo#4| state)) (concat ((_ extract 2 2) (|fifo#4| state)) (concat ((_ extract 2 2) (|fifo#4| state)) (concat ((_ extract 2 2) (|fifo#4| state)) (concat ((_ extract 2 2) (|fifo#4| state)) (concat ((_ extract 2 2) (|fifo#4| state)) (concat ((_ extract 2 2) (|fifo#4| state)) (concat ((_ extract 2 2) (|fifo#4| state)) (concat ((_ extract 2 2) (|fifo#4| state)) (concat ((_ extract 2 2) (|fifo#4| state)) (concat ((_ extract 2 2) (|fifo#4| state)) (concat ((_ extract 2 2) (|fifo#4| state)) (concat ((_ extract 2 2) (|fifo#4| state)) (concat ((_ extract 2 2) (|fifo#4| state)) (concat ((_ extract 2 2) (|fifo#4| state)) (concat ((_ extract 2 2) (|fifo#4| state)) (concat ((_ extract 2 2) (|fifo#4| state)) (concat ((_ extract 2 2) (|fifo#4| state)) (concat ((_ extract 2 2) (|fifo#4| state)) (|fifo#4| state)))))))))))))))))))))))))))))))) ; $and$formal_201d655d__02_ap_fifo_onehot0_full_empty_monitor.sv:116$45_Y
(define-fun |fifo#6| ((state |fifo_s|)) Bool (not (or  (= ((_ extract 0 0) (|fifo#5| state)) #b1) (= ((_ extract 1 1) (|fifo#5| state)) #b1) (= ((_ extract 2 2) (|fifo#5| state)) #b1) (= ((_ extract 3 3) (|fifo#5| state)) #b1) (= ((_ extract 4 4) (|fifo#5| state)) #b1) (= ((_ extract 5 5) (|fifo#5| state)) #b1) (= ((_ extract 6 6) (|fifo#5| state)) #b1) (= ((_ extract 7 7) (|fifo#5| state)) #b1) (= ((_ extract 8 8) (|fifo#5| state)) #b1) (= ((_ extract 9 9) (|fifo#5| state)) #b1) (= ((_ extract 10 10) (|fifo#5| state)) #b1) (= ((_ extract 11 11) (|fifo#5| state)) #b1) (= ((_ extract 12 12) (|fifo#5| state)) #b1) (= ((_ extract 13 13) (|fifo#5| state)) #b1) (= ((_ extract 14 14) (|fifo#5| state)) #b1) (= ((_ extract 15 15) (|fifo#5| state)) #b1) (= ((_ extract 16 16) (|fifo#5| state)) #b1) (= ((_ extract 17 17) (|fifo#5| state)) #b1) (= ((_ extract 18 18) (|fifo#5| state)) #b1) (= ((_ extract 19 19) (|fifo#5| state)) #b1) (= ((_ extract 20 20) (|fifo#5| state)) #b1) (= ((_ extract 21 21) (|fifo#5| state)) #b1) (= ((_ extract 22 22) (|fifo#5| state)) #b1) (= ((_ extract 23 23) (|fifo#5| state)) #b1) (= ((_ extract 24 24) (|fifo#5| state)) #b1) (= ((_ extract 25 25) (|fifo#5| state)) #b1) (= ((_ extract 26 26) (|fifo#5| state)) #b1) (= ((_ extract 27 27) (|fifo#5| state)) #b1) (= ((_ extract 28 28) (|fifo#5| state)) #b1) (= ((_ extract 29 29) (|fifo#5| state)) #b1) (= ((_ extract 30 30) (|fifo#5| state)) #b1) (= ((_ extract 31 31) (|fifo#5| state)) #b1)))) ; $eq$formal_201d655d__02_ap_fifo_onehot0_full_empty_monitor.sv:116$46_Y
(define-fun |fifo#7| ((state |fifo_s|)) Bool (or  (|fifo#3| state) false  (|fifo#6| state) false)) ; $logic_or$formal_201d655d__02_ap_fifo_onehot0_full_empty_monitor.sv:116$47_Y
(define-fun |fifo#8| ((state |fifo_s|)) Bool (not (or  (|fifo#7| state) false))) ; $logic_not$formal_201d655d__02_ap_fifo_onehot0_full_empty_monitor.sv:116$48_Y
(define-fun |fifo#9| ((state |fifo_s|)) Bool (and (or  true false false false false false false false false false false false false false false false false false false false false false false false false false false false false false false false) (or  (|fifo#8| state) false))) ; $logic_and$formal_201d655d__02_ap_fifo_onehot0_full_empty_monitor.sv:116$49_Y
(define-fun |fifo#10| ((state |fifo_s|)) (_ BitVec 1) (ite (|fifo#9| state) #b1 #b0)) ; $procmux$106_Y
(declare-fun |fifo#11| (|fifo_s|) (_ BitVec 1)) ; \rst_n_in
(define-fun |fifo#12| ((state |fifo_s|)) (_ BitVec 1) (ite (= ((_ extract 0 0) (|fifo#11| state)) #b1) (|fifo#10| state) #b0)) ; \ap_fifo_onehot0_full_empty_EN
; yosys-smt2-wire ap_fifo_onehot0_full_empty_EN 1
(define-fun |fifo_n ap_fifo_onehot0_full_empty_EN| ((state |fifo_s|)) Bool (= ((_ extract 0 0) (|fifo#12| state)) #b1))
(declare-fun |fifo#13| (|fifo_s|) Bool) ; \clk_in
; yosys-smt2-input clk_in 1
; yosys-smt2-wire clk_in 1
; yosys-smt2-clock clk_in posedge
; yosys-smt2-witness {"offset": 0, "path": ["\\clk_in"], "smtname": "clk_in", "smtoffset": 0, "type": "posedge", "width": 1}
; yosys-smt2-witness {"offset": 0, "path": ["\\clk_in"], "smtname": "clk_in", "smtoffset": 0, "type": "input", "width": 1}
(define-fun |fifo_n clk_in| ((state |fifo_s|)) Bool (|fifo#13| state))
(define-fun |fifo#14| ((state |fifo_s|)) (_ BitVec 1) (ite (|fifo#1| state) #b1 #b0)) ; $procmux$110_Y
(define-fun |fifo#15| ((state |fifo_s|)) (_ BitVec 1) (ite (= ((_ extract 0 0) (|fifo#11| state)) #b1) (|fifo#14| state) #b0)) ; \cp_fifo_empty_no_read_EN
; yosys-smt2-wire cp_fifo_empty_no_read_EN 1
(define-fun |fifo_n cp_fifo_empty_no_read_EN| ((state |fifo_s|)) Bool (= ((_ extract 0 0) (|fifo#15| state)) #b1))
(define-fun |fifo#16| ((state |fifo_s|)) (_ BitVec 1) (ite (|fifo#2| state) #b1 #b0)) ; $procmux$99_Y
(define-fun |fifo#17| ((state |fifo_s|)) (_ BitVec 1) (ite (= ((_ extract 0 0) (|fifo#11| state)) #b1) (|fifo#16| state) #b0)) ; \cp_fifo_full_no_write_EN
; yosys-smt2-wire cp_fifo_full_no_write_EN 1
(define-fun |fifo_n cp_fifo_full_no_write_EN| ((state |fifo_s|)) Bool (= ((_ extract 0 0) (|fifo#17| state)) #b1))
(declare-fun |fifo#18| (|fifo_s|) Bool) ; \data_start
; yosys-smt2-input data_start 1
; yosys-smt2-wire data_start 1
; yosys-smt2-witness {"offset": 0, "path": ["\\data_start"], "smtname": "data_start", "smtoffset": 0, "type": "input", "width": 1}
(define-fun |fifo_n data_start| ((state |fifo_s|)) Bool (|fifo#18| state))
; yosys-smt2-input empty_out 1
; yosys-smt2-wire empty_out 1
; yosys-smt2-witness {"offset": 0, "path": ["\\empty_out"], "smtname": "empty_out", "smtoffset": 0, "type": "input", "width": 1}
(define-fun |fifo_n empty_out| ((state |fifo_s|)) Bool (|fifo#1| state))
; yosys-smt2-input full_out 1
; yosys-smt2-wire full_out 1
; yosys-smt2-witness {"offset": 0, "path": ["\\full_out"], "smtname": "full_out", "smtoffset": 0, "type": "input", "width": 1}
(define-fun |fifo_n full_out| ((state |fifo_s|)) Bool (|fifo#2| state))
(declare-fun |fifo#19| (|fifo_s|) Bool) ; \rd_data_out
; yosys-smt2-input rd_data_out 1
; yosys-smt2-wire rd_data_out 1
; yosys-smt2-witness {"offset": 0, "path": ["\\rd_data_out"], "smtname": "rd_data_out", "smtoffset": 0, "type": "input", "width": 1}
(define-fun |fifo_n rd_data_out| ((state |fifo_s|)) Bool (|fifo#19| state))
(declare-fun |fifo#20| (|fifo_s|) Bool) ; \rd_en_in
; yosys-smt2-input rd_en_in 1
; yosys-smt2-wire rd_en_in 1
; yosys-smt2-witness {"offset": 0, "path": ["\\rd_en_in"], "smtname": "rd_en_in", "smtoffset": 0, "type": "input", "width": 1}
(define-fun |fifo_n rd_en_in| ((state |fifo_s|)) Bool (|fifo#20| state))
; yosys-smt2-input rst_n_in 1
; yosys-smt2-wire rst_n_in 1
; yosys-smt2-witness {"offset": 0, "path": ["\\rst_n_in"], "smtname": "rst_n_in", "smtoffset": 0, "type": "input", "width": 1}
(define-fun |fifo_n rst_n_in| ((state |fifo_s|)) Bool (= ((_ extract 0 0) (|fifo#11| state)) #b1))
; yosys-smt2-witness {"offset": 0, "path": ["$auto$async2sync.cc:107:execute$165"], "smtname": 21, "smtoffset": 0, "type": "reg", "width": 1}
(declare-fun |fifo#21| (|fifo_s|) (_ BitVec 1)) ; $auto$async2sync.cc:107:execute$165
; yosys-smt2-register $auto$async2sync.cc:107:execute$165 1
(define-fun |fifo_n $auto$async2sync.cc:107:execute$165| ((state |fifo_s|)) Bool (= ((_ extract 0 0) (|fifo#21| state)) #b1))
(declare-fun |fifo#22| (|fifo_s|) Bool) ; \wr_data_in
; yosys-smt2-input wr_data_in 1
; yosys-smt2-wire wr_data_in 1
; yosys-smt2-witness {"offset": 0, "path": ["\\wr_data_in"], "smtname": "wr_data_in", "smtoffset": 0, "type": "input", "width": 1}
(define-fun |fifo_n wr_data_in| ((state |fifo_s|)) Bool (|fifo#22| state))
(declare-fun |fifo#23| (|fifo_s|) Bool) ; \wr_en_in
; yosys-smt2-input wr_en_in 1
; yosys-smt2-wire wr_en_in 1
; yosys-smt2-witness {"offset": 0, "path": ["\\wr_en_in"], "smtname": "wr_en_in", "smtoffset": 0, "type": "input", "width": 1}
(define-fun |fifo_n wr_en_in| ((state |fifo_s|)) Bool (|fifo#23| state))
(define-fun |fifo#24| ((state |fifo_s|)) (_ BitVec 1) (bvnot (ite (|fifo#13| state) #b1 #b0))) ; $auto$rtlil.cc:3255:Not$237
; yosys-smt2-assume 0 $auto$formalff.cc:987:execute$238
(define-fun |fifo_u 0| ((state |fifo_s|)) Bool (or (= ((_ extract 0 0) (|fifo#24| state)) #b1) (not true))) ; $auto$formalff.cc:987:execute$238
; yosys-smt2-assert 0 ap_fifo_onehot0_full_empty
(define-fun |fifo_a 0| ((state |fifo_s|)) Bool (or (= ((_ extract 0 0) (|fifo#0| state)) #b1) (not (= ((_ extract 0 0) (|fifo#21| state)) #b1)))) ; ap_fifo_onehot0_full_empty
(define-fun |fifo#25| ((state |fifo_s|)) Bool (not (or  (|fifo#20| state) false))) ; $logic_not$formal_201d655d__02_ap_fifo_onehot0_full_empty_monitor.sv:225$95_Y
; yosys-smt2-assume 1 cp_fifo_empty_no_read
(define-fun |fifo_u 1| ((state |fifo_s|)) Bool (or (|fifo#25| state) (not (= ((_ extract 0 0) (|fifo#15| state)) #b1)))) ; cp_fifo_empty_no_read
(define-fun |fifo#26| ((state |fifo_s|)) Bool (not (or  (|fifo#23| state) false))) ; $logic_not$formal_201d655d__02_ap_fifo_onehot0_full_empty_monitor.sv:214$91_Y
; yosys-smt2-assume 2 cp_fifo_full_no_write
(define-fun |fifo_u 2| ((state |fifo_s|)) Bool (or (|fifo#26| state) (not (= ((_ extract 0 0) (|fifo#17| state)) #b1)))) ; cp_fifo_full_no_write
(define-fun |fifo_a| ((state |fifo_s|)) Bool 
  (|fifo_a 0| state)
)
(define-fun |fifo_u| ((state |fifo_s|)) Bool (and
  (|fifo_u 0| state)
  (|fifo_u 1| state)
  (|fifo_u 2| state)
))
(define-fun |fifo_i| ((state |fifo_s|)) Bool (and
  (= (= ((_ extract 0 0) (|fifo#0| state)) #b1) true) ; $auto$async2sync.cc:116:execute$169
  (= (= ((_ extract 0 0) (|fifo#21| state)) #b1) false) ; $auto$async2sync.cc:107:execute$165
))
(define-fun |fifo_h| ((state |fifo_s|)) Bool true)
(define-fun |fifo_t| ((state |fifo_s|) (next_state |fifo_s|)) Bool (and
  (= (|fifo#12| state) (|fifo#21| next_state)) ; $auto$async2sync.cc:110:execute$167 $auto$async2sync.cc:107:execute$165
  (= #b0 (|fifo#0| next_state)) ; $auto$async2sync.cc:118:execute$170 $auto$async2sync.cc:116:execute$169
)) ; end of module fifo
; yosys-smt2-topmod fifo
; end of yosys output
